%chk=D:\gfile\pywfn\C6H6.chk
# b3lyp/6-31g(d) pop=full gfinput iop(3/33=1)

Title Card Required

0 1
 C                  0.00000000    1.40140000    0.00000000
 C                  1.21364800    0.70070000    0.00000000
 C                  1.21364800   -0.70070000    0.00000000
 C                  0.00000000   -1.40140000    0.00000000
 C                 -1.21364800   -0.70070000    0.00000000
 C                 -1.21364800    0.70070000    0.00000000
 H                  0.00000000    2.47140000    0.00000000
 H                  2.14029500    1.23570000    0.00000000
 H                  2.14029500   -1.23570000    0.00000000
 H                  0.00000000   -2.47140000    0.00000000
 H                 -2.14029500   -1.23570000    0.00000000
 H                 -2.14029500    1.23570000    0.00000000

